
Gurobi 11.0.3 (linux64) logging started Mon 18 Nov 2024 07:30:20 PM CST

Set parameter LogFile to value "/home/dlcole3/graph_abstraction/hierarchical_graphs/git_storage/CS1/HP_low_reserves/gurobi_logs/serial/logfile_ST4_8.log"

Gurobi 11.0.3 (linux64) logging started Mon 18 Nov 2024 07:47:22 PM CST

Set parameter LogFile to value "/home/dlcole3/graph_abstraction/hierarchical_graphs/git_storage/CS1/HP_low_reserves/gurobi_logs/serial/logfile_ST4_8.log"
Gurobi Optimizer version 11.0.3 build v11.0.3rc0 (linux64 - "Ubuntu 18.04.3 LTS")

CPU model: Intel(R) Xeon(R) CPU E5-2698 v4 @ 2.20GHz, instruction set [SSE2|AVX|AVX2]
Thread count: 40 physical cores, 80 logical processors, using up to 20 threads

Optimize a model with 29168 rows, 50688 columns and 136175 nonzeros
Model fingerprint: 0x937189c6
Variable types: 46944 continuous, 3744 integer (3744 binary)
Coefficient statistics:
  Matrix range     [6e-01, 2e+04]
  Objective range  [2e+00, 2e+04]
  Bounds range     [5e-02, 2e+05]
  RHS range        [5e-02, 7e+03]
Presolve removed 14381 rows and 38874 columns
Presolve time: 0.34s
Presolved: 14787 rows, 11814 columns, 63463 nonzeros
Variable types: 8758 continuous, 3056 integer (3056 binary)
Found heuristic solution: objective 172708.38722
Found heuristic solution: objective 135425.30978

Root relaxation: objective 2.219371e+04, 7509 iterations, 0.29 seconds (0.20 work units)

    Nodes    |    Current Node    |     Objective Bounds      |     Work
 Expl Unexpl |  Obj  Depth IntInf | Incumbent    BestBd   Gap | It/Node Time

     0     0 22193.7137    0    5 135425.310 22193.7137  83.6%     -    1s
H    0     0                    25077.549427 22193.7137  11.5%     -    1s
     0     0 22193.7137    0    5 25077.5494 22193.7137  11.5%     -    1s
     0     0 22193.7137    0    5 25077.5494 22193.7137  11.5%     -    1s
     0     0 22193.7137    0    2 25077.5494 22193.7137  11.5%     -    2s
     0     0 22193.7137    0    2 25077.5494 22193.7137  11.5%     -    2s
     0     2 22193.7137    0    2 25077.5494 22193.7137  11.5%     -    2s
*   14    14               3    23668.570725 22193.7525  6.23%  17.1    2s
H   91    89                    23668.570634 22206.7416  6.18%  13.4    3s
H   96    89                    22668.230735 22207.9754  2.03%  12.9    3s
H  106    89                    22668.195568 22207.9754  2.03%  12.2    3s
H  241    86                    22642.804657 22279.2172  1.61%   6.5    3s
H  285   119                    22642.210469 22279.2172  1.60%   5.8    3s
H  295   119                    22619.577619 22279.2172  1.50%   5.7    3s
H  310   119                    22597.541303 22279.2172  1.41%   5.6    3s
H  317   134                    22522.740552 22279.2172  1.08%   5.5    3s
*  469    42              22    22522.325965 22334.7290  0.83%   4.2    3s
  1537   213 22513.6208   21    3 22522.3260 22440.8509  0.36%   2.7    5s
H 1541   213                    22522.325896 22440.8509  0.36%   2.7    5s
H 1551   213                    22522.325852 22440.8509  0.36%   2.7    5s
H 1565   215                    22522.325812 22440.8509  0.36%   2.7    5s
H 1571   215                    22522.324347 22440.8509  0.36%   2.7    5s

Explored 2741 nodes (20861 simplex iterations) in 6.01 seconds (4.35 work units)
Thread count was 20 (of 80 available processors)

Solution count 10: 22522.3 22522.3 22522.3 ... 23668.6

Optimal solution found (tolerance 3.00e-03)
Best objective 2.252232434703e+04, best bound 2.250108506354e+04, gap 0.0943%

User-callback calls 7666, time in user-callback 0.00 sec
